# Objective value = 6
WA1n 0
WA1p 1
WA2n 0
WA2p 0
WA3n 0
WA3p 0
WA4n 0
WA4p 0
WB1n 0
WB1p 1
WB2n 0
WB2p 0
WB3n 0
WB3p 0
WB4n 0
WB4p 0
WC1n 0
WC1p 1
WC2n 0
WC2p 0
WC3n 0
WC3p 0
WC4n 0
WC4p 0
WD1n 0
WD1p 1
WD2n 0
WD2p 0
WD3n 0
WD3p 0
WD4n 0
WD4p 0
WT1n 0
WT1p 2
WT2n 0
WT2p 0
WT3n 0
WT3p 0
WT4n 0
WT4p 0
5 5
a 1
b 1
c 1
d 1
e 1
f 1
g 1
h 1
i 1
j 1
k 1
l 1
m 1
n 1
o 1
p 1
q 1
r 1
s 1
t 1
